Version identifier: 20.1.0.0 | 2020-11-10 | 9bedb6d68
CPXPARAM_Threads                                 1
CPXPARAM_TimeLimit                               7200
CPXPARAM_MIP_Tolerances_MIPGap                   0
Generic callback                                 0x60
1 of 1 MIP starts provided solutions.
MIP start 'm1' defined initial solution with objective 2702.9617.
Tried aggregator 1 time.
Reduced MIP has 1 rows, 1001 columns, and 1000 nonzeros.
Reduced MIP has 1000 binaries, 0 generals, 0 SOSs, and 0 indicators.
Presolve time = 0.00 sec. (0.30 ticks)
Probing time = 0.00 sec. (0.11 ticks)
Tried aggregator 1 time.
Reduced MIP has 1 rows, 1001 columns, and 1000 nonzeros.
Reduced MIP has 1000 binaries, 0 generals, 0 SOSs, and 0 indicators.
Presolve time = 0.00 sec. (0.31 ticks)
Probing time = 0.00 sec. (0.11 ticks)
MIP emphasis: balance optimality and feasibility.
MIP search method: dynamic search.
Parallel mode: none, using 1 thread.
Root relaxation solution time = 0.00 sec. (0.21 ticks)

        Nodes                                         Cuts/
   Node  Left     Objective  IInf  Best Integer    Best Bound    ItCnt     Gap

*     0+    0                         2702.9617     5432.0000           100.96%
      0     0     3793.8033     2     2702.9617     5432.0000        0  100.96%
      0     0     3170.4902     3     2702.9617 UserPurge2: 1        9   17.30%
      0     0     3083.1092     5     2702.9617 UserPurge2: 1       24   14.06%
      0     0     2979.5235     6     2702.9617 UserPurge2: 1       54   10.23%
      0     0     2963.4738     8     2702.9617 UserPurge2: 1       67    9.64%
      0     0     2935.9159     8     2702.9617 UserPurge2: 1       93    8.62%
      0     0     2921.5940     8     2702.9617 UserPurge2: 1      104    8.09%
      0     0     2920.6138    10     2702.9617 UserPurge1: 1      109    8.05%
      0     0     2906.8086    10     2702.9617 UserPurge2: 1      129    7.54%
      0     0     2895.2433    11     2702.9617 UserPurge2: 1      149    7.11%
      0     0     2888.4538    11     2702.9617 UserPurge2: 1      161    6.86%
      0     0     2871.9333    11     2702.9617 UserPurge2: 1      183    6.25%
      0     0     2855.8693    11     2702.9617 UserPurge2: 1      220    5.66%
      0     0     2849.7712    10     2702.9617 UserPurge2: 1      246    5.43%
      0     0     2840.1892    10     2702.9617 UserPurge2: 1      266    5.08%
      0     0     2834.1277    10     2702.9617 UserPurge2: 1      284    4.85%
      0     0     2821.7561     8     2702.9617 UserPurge2: 1      318    4.39%
      0     0     2817.8086    10     2702.9617 UserPurge2: 1      337    4.25%
      0     0     2811.4982     9     2702.9617 UserPurge2: 1      355    4.02%
      0     0     2807.7269    10     2702.9617 UserPurge2: 1      373    3.88%
      0     0     2799.0389    10     2702.9617 UserPurge2: 1      402    3.55%
      0     0     2795.7761    11     2702.9617 UserPurge2: 1      420    3.43%
      0     0     2795.5839    11     2702.9617 UserPurge1: 1      423    3.43%
      0     0     2792.9698    11     2702.9617 UserPurge2: 1      433    3.33%
      0     0     2786.3721    12     2702.9617 UserPurge2: 1      453    3.09%
      0     0     2782.0507    10     2702.9617 UserPurge2: 1      473    2.93%
      0     0     2780.2886    11     2702.9617 UserPurge2: 1      483    2.86%
      0     0     2777.8109    11     2702.9617 UserPurge2: 1      504    2.77%
      0     0     2776.0165    11     2702.9617 UserPurge2: 1      524    2.70%
      0     0     2771.6861    12     2702.9617 UserPurge2: 1      551    2.54%
      0     0     2770.0390    12     2702.9617 UserPurge2: 1      571    2.48%
      0     0     2769.4471    12     2702.9617 UserPurge2: 1      584    2.46%
      0     0     2767.2741    13     2702.9617 UserPurge2: 1      602    2.38%
      0     0     2764.1506    13     2702.9617 UserPurge2: 1      622    2.26%
      0     0     2760.2084    12     2702.9617 UserPurge2: 1      640    2.12%
      0     0     2759.2677    12     2702.9617 UserPurge2: 1      650    2.08%
      0     0     2756.9089    13     2702.9617 UserPurge2: 1      679    2.00%
      0     0     2755.8295    14     2702.9617 UserPurge2: 1      692    1.96%
      0     0     2754.6315    14     2702.9617 UserPurge2: 1      712    1.91%
      0     0     2754.1404    14     2702.9617 UserPurge2: 1      728    1.89%
      0     0     2753.1627    15     2702.9617 UserPurge2: 1      748    1.86%
      0     0     2750.7345    14     2702.9617 UserPurge2: 1      779    1.77%
      0     0     2749.3971    13     2702.9617 UserPurge2: 1      788    1.72%
      0     0     2748.3034    14     2702.9617 UserPurge2: 1      800    1.68%
      0     0     2747.1907    13     2702.9617 UserPurge2: 1      824    1.64%
      0     0     2745.0375    13     2702.9617 UserPurge2: 1      838    1.56%
      0     0     2744.7076    14     2702.9617 UserPurge2: 1      847    1.54%
      0     0     2744.4227    15     2702.9617 UserPurge2: 1      856    1.53%
      0     0     2743.1389    13     2702.9617 UserPurge2: 1      879    1.49%
      0     0     2742.7428    14     2702.9617 UserPurge2: 1      890    1.47%
      0     0     2742.3442    14     2702.9617 UserPurge2: 1      899    1.46%
      0     0     2742.2661    15     2702.9617 UserPurge2: 1      907    1.45%
*     0+    0                         2707.1644     2742.2661             1.30%
      0     0     2741.8984    15     2707.1644 UserPurge2: 1      920    1.28%
      0     0     2741.7852    15     2707.1644 UserPurge2: 1      929    1.28%
      0     0     2741.5516    16     2707.1644 UserPurge2: 1      939    1.27%
      0     0     2741.3263    17     2707.1644 UserPurge2: 1      953    1.26%
      0     0     2740.9529    17     2707.1644 UserPurge2: 1      967    1.25%
      0     0     2740.3248    15     2707.1644 UserPurge2: 1      977    1.22%
      0     0     2740.1844    16     2707.1644 UserPurge2: 1      988    1.22%
      0     0     2739.8554    16     2707.1644 UserPurge2: 1     1000    1.21%
      0     0     2739.4824    17     2707.1644 UserPurge2: 1     1012    1.19%
      0     2     2739.4824    17     2707.1644     2739.4596     1012    1.19%
Elapsed time = 20.89 sec. (273.33 ticks, tree = 0.01 MB, solutions = 2)
*     1     1      integral     0     2713.9788     2739.4596     3290    0.94%
*     2     0      integral     0     2716.0000     2716.0000     9067    0.00%

User cuts applied:  399

Root node processing (before b&c):
  Real time             =   20.89 sec. (274.46 ticks)
Sequential b&c:
  Real time             =   36.39 sec. (3119.43 ticks)
                          ------------
Total (root+branch&cut) =   57.29 sec. (3393.89 ticks)
@Parameters: 
is_S_cut                                true
is_add_all_yinF                         true
is_start_value                          true
is_usercut                              true
is_visualization                        false
uc_only_rootnode                        false

data                                    Qi
fn                                      data/Qi/instance_1000_1000.csv
mode                                    NewSubmodular
solver                                  cplex

p                                       5
r                                       5

EPS                                     1.0e-06
EPS_vio                                 1.0e-04
beta                                    0.10
gap                                     0.00
nodelimit                               Inf
timelimit                               7200.00


@PrintInfos
ItCnt: 9067
Current gap: 0.00 %
Termination Status: OPTIMAL
Primal Status: FEASIBLE_POINT
Solve Time: 57.29 sec
Objective Value: 2716.000000
Number of Nodes:      3

CutInfo: [phase] num / time (sec) 
ZLP             [phase1]     0 / 0.00 [rLC]     0 / 0.00 [rUC]     0 / 0.00 [sLC]     0 / 0.00 [sUC]     0 / 0.00 
OldSubmodular   [phase1]     0 / 0.00 [rLC]     0 / 0.00 [rUC]     0 / 0.00 [sLC]     0 / 0.00 [sUC]     0 / 0.00 
NewSubmodular   [phase1]     0 / 0.00 [rLC]    41 / 13.79 [rUC]    62 / 4.82 [sLC]     0 / 6.44 [sUC]   378 / 27.56 
PMP             [phase1]     0 / 0.00 [rLC]     3 / 10.34 [rUC]     0 / 0.00 [sLC]     2 / 6.41 [sUC]     0 / 0.00 
Separation Round: [phase1] 0  [rLC] 43  [rUC] 62  [sLC] 2  [sUC] 378
Root Best Bound 2716.000000
Root Best Integer: 2716.000000
Best Bound: 2716.000000
Best Integer: 2716.000000

